3753.16 0
0 112 156 37 189 164 162 75 84 25 24 82 79 55 0
0 111 59 61 67 42 20 65 177 50 40 76 0
0 16 15 176 51 26 13 146 46 32 72 0
0 6 49 21 70 180 132 147 172 194 45 126 0
0 27 3 117 34 178 135 192 120 115 185 155 125 0
0 144 47 104 158 184 186 124 71 187 54 0
0 81 107 105 136 5 116 191 66 154 139 193 196 160 88 69 108 56 0
0 87 73 142 137 166 74 198 121 93 94 138 152 0
0 128 39 131 31 77 8 145 175 130 179 78 150 109 97 0
0 182 68 174 64 30 188 157 99 38 118 44 60 151 0
0 123 11 148 23 90 36 143 114 43 140 17 127 0
0 63 22 89 122 149 7 12 102 133 170 85 165 18 0
0 183 91 41 173 29 181 195 103 35 106 98 167 9 0
0 62 113 28 197 141 199 190 101 171 2 53 1 86 0
0 4 100 168 33 159 48 58 19 129 92 96 153 0
0 83 169 10 134 119 57 52 110 163 80 14 161 95 0
